proyfinal/src/viki/013/experimentInOfficeAgust.take6.output/c24f4e9b-5a0e-4e86-8bfa-56039150d6b1.als.dat
{'cnf.clauses': '118081',
 'cnf.totvars': '69608',
 'conflict literals': '129',
 'conflicts': '58',
 'decisions': '10267',
 'memused.mb': '14.04',
 'outcome': 'UNSAT',
 'propagations': '51653',
 'restarts': '1',
 'solver.msecs': 32,
 'task.msecs': 200}
