proyfinal/src/viki/013/experimentInOfficeAgust.take6.output/c24f4e9b-5a0e-4e86-8bfa-56039150d6b1.als.out
Reading from standard input... Use '--help' for help.
============================[ Problem Statistics ]=============================
|                                                                             |
|  Number of variables:         69608                                         |
|  Number of clauses:          118081                                         |
|  Parse time:                   0.02 s                                       |
|                                                                             |
============================[ Search Statistics ]==============================
| Conflicts |          ORIGINAL         |          LEARNT          | Progress |
|           |    Vars  Clauses Literals |    Limit  Clauses Lit/Cl |          |
===============================================================================
===============================================================================
restarts              : 1
conflicts             : 58             (1800 /sec)
decisions             : 10267          (0.00 % random) (318564 /sec)
propagations          : 51653          (1602687 /sec)
conflict literals     : 129            (3.01 % deleted)
Memory used           : 14.04 MB
CPU time              : 0.032229 s

UNSATISFIABLE
